# 
# This is the geometry file that corresponds to the current relaxation step.
# If you do not want this file to be written, set the "write_restart_geometry" flag to .false.
#  aims_uuid : DEC5F94D-F4A4-41E6-A101-4F4A1F55B243                                
# 
lattice_vector      5.11538786     -0.00000000      0.00000000
lattice_vector      0.00000000      4.19204458      0.00000000
lattice_vector      0.00000000      0.00000000     40.00000000
atom       3.21699645      3.06341838     19.89354274 C
constrain_relaxation .true.
atom       4.49583687      3.72045714     19.90047884 C
constrain_relaxation .true.
atom       1.93882677      3.72110788     19.89049297 C
constrain_relaxation .true.
atom       3.21757078      1.62500485     19.89378608 C
constrain_relaxation .true.
atom       0.65997149      3.06374389     19.90131404 C
constrain_relaxation .true.
atom       0.66012708      1.62438514     19.90151301 C
constrain_relaxation .true.
atom       1.93923207      0.96699076     19.89068491 C
constrain_relaxation .true.
atom       4.49611887      0.96775066     19.90068451 C
constrain_relaxation .true.
atom       1.36395584      1.61123760     23.08994042 H
atom       2.05103222      2.19578197     23.44587473 O
atom       2.70097081      1.56874770     23.79813775 H
